NAME : random98.764.tour
COMMENT : Length = 764
COMMENT : Found by LKH [Keld Helsgaun] Thu Sep 26 21:59:14 2024
TYPE : TOUR
DIMENSION : 98
TOUR_SECTION
1
16
26
15
72
66
64
21
12
82
56
10
48
7
84
49
90
59
79
28
40
54
41
63
51
67
11
55
50
68
34
43
78
33
27
35
75
24
91
3
22
5
80
31
58
25
23
94
95
13
53
30
88
92
19
87
86
32
97
83
45
29
46
37
36
71
4
6
57
76
85
39
96
38
18
52
60
14
2
9
69
74
61
93
81
17
62
20
73
65
44
8
47
98
89
42
77
70
-1
EOF
